************************************************************************
file with basedata            : mm27_.bas
initial value random generator: 384382780
************************************************************************
projects                      :  1
jobs (incl. supersource/sink ):  12
horizon                       :  81
RESOURCES
  - renewable                 :  2   R
  - nonrenewable              :  2   N
  - doubly constrained        :  0   D
************************************************************************
PROJECT INFORMATION:
pronr.  #jobs rel.date duedate tardcost  MPM-Time
    1     10      0       12        3       12
************************************************************************
PRECEDENCE RELATIONS:
jobnr.    #modes  #successors   successors
   0        1          3           1   2   3
   1        3          1           4
   2        3          2           5  10
   3        3          1           6
   4        3          2           9  10
   5        3          2           8   9
   6        3          2           7   8
   7        3          2           9  10
   8        3          1          11
   9        3          1          11
  10        3          1          11
  11        1          0        
************************************************************************
REQUESTS/DURATIONS:
jobnr. mode duration  R 1  R 2  R 3  R 4  E(W 1)  E(W 2)  E(W 3)
------------------------------------------------------------------------
  0      1     0       0    0    0    0     0       0       0
  1      1     2       0   10    0    6    20       0      12
  2      1     1       0    9    0    4     9       0       4
  3      1     1       0    3    9    0     3       9       0
  4      1     1       6    0    0    7     6       0       7
  5      1     4       5    0    7    0    20      28       0
  6      1     1       0    8    7    0     8       7       0
  7      1     4       7    0    0    4    28       0      16
  8      1     4       0    5    0    8    20       0      32
  9      1     6       0    9    6    0    54      36       0
 10      1     2       0    8    8    0    16      16       0
 11      1     0       0    0    0    0     0       0       0
************************************************************************
RESOURCEAVAILABILITIES:
  R 1  R 2  R 3
   45   46   32
************************************************************************
RESOURCE LIMITS:
jobnr.  l(R 1)  u(R 1)  l(R 2)  u(R 2)  l(R 3)  u(R 3)
------------------------------------------------------------------------
  0        0       0       0       0       0       0
  1        5      10       0       0       3       6
  2        5       9       0       0       2       4
  3        2       3       5       9       0       0
  4        3       6       0       0       4       7
  5        3       5       4       7       0       0
  6        4       8       4       7       0       0
  7        4       7       0       0       2       4
  8        3       5       0       0       4       8
  9        5       9       3       6       0       0
 10        4       8       4       8       0       0
 11        0       0       0       0       0       0
************************************************************************
SCENARIOS:
------------------------------------------------------------------------
RESOURCE k = 1
s = 1: (0, 27, 13, 4, 8, 15, 10, 54, 20, 52, 11, 0)
s = 2: (0, 28, 15, 4, 4, 18, 6, 27, 19, 75, 22, 0)
s = 3: (0, 18, 14, 3, 7, 17, 6, 29, 17, 29, 19, 0)
s = 4: (0, 19, 10, 4, 7, 24, 8, 25, 13, 31, 21, 0)
s = 5: (0, 30, 13, 3, 6, 15, 10, 41, 25, 66, 16, 0)
s = 6: (0, 19, 12, 3, 10, 15, 7, 22, 26, 28, 13, 0)
s = 7: (0, 23, 11, 4, 7, 23, 9, 15, 12, 50, 14, 0)
s = 8: (0, 12, 5, 2, 9, 13, 6, 24, 19, 53, 12, 0)
s = 9: (0, 17, 6, 4, 5, 17, 8, 41, 12, 39, 17, 0)
s = 10: (0, 37, 10, 3, 6, 28, 13, 29, 11, 29, 21, 0)
s = 11: (0, 24, 9, 3, 4, 14, 5, 24, 22, 84, 15, 0)
s = 12: (0, 19, 12, 5, 7, 19, 12, 30, 18, 51, 21, 0)
s = 13: (0, 19, 9, 4, 6, 22, 11, 35, 21, 58, 21, 0)
s = 14: (0, 13, 14, 6, 5, 29, 7, 29, 33, 55, 14, 0)
s = 15: (0, 13, 9, 5, 6, 28, 12, 21, 17, 63, 12, 0)
s = 16: (0, 24, 9, 3, 8, 23, 11, 28, 14, 37, 14, 0)
s = 17: (0, 26, 7, 3, 9, 17, 7, 27, 28, 43, 24, 0)
s = 18: (0, 26, 7, 4, 6, 17, 5, 27, 18, 43, 15, 0)
s = 19: (0, 16, 10, 3, 7, 28, 7, 27, 18, 87, 13, 0)
s = 20: (0, 11, 7, 4, 5, 22, 8, 24, 24, 47, 22, 0)
s = 21: (0, 25, 10, 4, 7, 26, 6, 32, 14, 64, 19, 0)
s = 22: (0, 24, 10, 4, 9, 16, 8, 24, 29, 60, 13, 0)
s = 23: (0, 13, 13, 3, 4, 15, 9, 20, 23, 52, 12, 0)
s = 24: (0, 29, 14, 4, 7, 21, 6, 23, 30, 62, 25, 0)
s = 25: (0, 22, 9, 4, 5, 34, 8, 17, 13, 56, 19, 0)
s = 26: (0, 14, 7, 2, 8, 14, 7, 25, 14, 46, 20, 0)
s = 27: (0, 24, 11, 2, 5, 17, 12, 29, 12, 71, 24, 0)
s = 28: (0, 14, 11, 4, 8, 13, 8, 27, 17, 33, 19, 0)
s = 29: (0, 28, 9, 3, 7, 28, 9, 48, 26, 64, 14, 0)
s = 30: (0, 18, 16, 3, 6, 18, 9, 37, 12, 53, 15, 0)
s = 31: (0, 29, 13, 3, 9, 17, 10, 40, 25, 35, 18, 0)
s = 32: (0, 34, 11, 3, 6, 15, 7, 16, 17, 49, 17, 0)
s = 33: (0, 14, 10, 3, 10, 21, 8, 29, 18, 69, 13, 0)
s = 34: (0, 16, 10, 3, 6, 19, 10, 42, 16, 62, 24, 0)
s = 35: (0, 25, 9, 3, 6, 16, 8, 15, 12, 46, 22, 0)
s = 36: (0, 19, 10, 3, 7, 27, 6, 27, 24, 41, 10, 0)
s = 37: (0, 19, 11, 5, 4, 22, 10, 34, 21, 51, 18, 0)
s = 38: (0, 18, 11, 3, 10, 21, 11, 33, 23, 59, 24, 0)
s = 39: (0, 20, 11, 4, 6, 32, 9, 18, 17, 44, 12, 0)
s = 40: (0, 15, 13, 3, 10, 12, 9, 36, 15, 38, 20, 0)
s = 41: (0, 12, 9, 3, 7, 20, 8, 30, 17, 34, 21, 0)
s = 42: (0, 17, 15, 3, 6, 19, 9, 22, 14, 32, 13, 0)
s = 43: (0, 21, 10, 3, 6, 33, 5, 35, 19, 43, 16, 0)
s = 44: (0, 16, 7, 3, 8, 23, 14, 41, 28, 32, 18, 0)
s = 45: (0, 23, 11, 3, 8, 19, 8, 39, 23, 32, 24, 0)
s = 46: (0, 16, 6, 4, 5, 17, 8, 22, 14, 58, 16, 0)
s = 47: (0, 21, 10, 3, 5, 17, 9, 36, 26, 56, 14, 0)
s = 48: (0, 16, 9, 2, 7, 16, 9, 24, 12, 69, 11, 0)
s = 49: (0, 16, 6, 5, 6, 27, 5, 27, 17, 38, 11, 0)
s = 50: (0, 22, 7, 4, 4, 16, 8, 33, 29, 37, 20, 0)
s = 51: (0, 17, 12, 2, 5, 15, 5, 33, 13, 48, 13, 0)
s = 52: (0, 20, 6, 5, 4, 14, 7, 23, 15, 35, 16, 0)
s = 53: (0, 28, 11, 3, 4, 11, 11, 26, 15, 34, 19, 0)
s = 54: (0, 17, 9, 5, 9, 13, 9, 36, 24, 54, 10, 0)
s = 55: (0, 16, 10, 4, 4, 20, 7, 23, 26, 47, 15, 0)
s = 56: (0, 20, 12, 2, 8, 15, 6, 22, 26, 43, 24, 0)
s = 57: (0, 15, 8, 4, 6, 22, 11, 24, 28, 73, 22, 0)
s = 58: (0, 28, 9, 4, 7, 26, 12, 19, 28, 28, 16, 0)
s = 59: (0, 23, 6, 3, 10, 19, 7, 29, 26, 59, 15, 0)
s = 60: (0, 19, 14, 3, 5, 22, 6, 35, 32, 39, 17, 0)
s = 61: (0, 15, 10, 4, 4, 19, 8, 32, 23, 62, 28, 0)
s = 62: (0, 16, 11, 2, 9, 21, 6, 25, 16, 47, 16, 0)
s = 63: (0, 26, 8, 3, 9, 17, 9, 31, 13, 36, 13, 0)
s = 64: (0, 14, 11, 4, 5, 18, 6, 26, 15, 52, 17, 0)
s = 65: (0, 14, 8, 3, 7, 25, 11, 29, 16, 59, 19, 0)
s = 66: (0, 17, 10, 2, 6, 23, 10, 25, 21, 52, 18, 0)
s = 67: (0, 21, 9, 5, 10, 16, 10, 17, 17, 76, 16, 0)
s = 68: (0, 15, 10, 3, 8, 28, 7, 26, 16, 63, 16, 0)
s = 69: (0, 31, 10, 2, 7, 22, 10, 33, 17, 97, 16, 0)
s = 70: (0, 20, 6, 4, 8, 31, 8, 25, 24, 47, 10, 0)
s = 71: (0, 29, 6, 4, 6, 17, 11, 19, 20, 41, 14, 0)
s = 72: (0, 22, 10, 4, 7, 27, 11, 19, 19, 74, 21, 0)
s = 73: (0, 12, 11, 3, 6, 34, 11, 35, 14, 56, 19, 0)
s = 74: (0, 23, 7, 4, 5, 17, 10, 24, 20, 55, 10, 0)
s = 75: (0, 17, 10, 3, 6, 18, 11, 29, 12, 75, 14, 0)
s = 76: (0, 12, 8, 3, 5, 13, 12, 25, 23, 56, 16, 0)
s = 77: (0, 14, 15, 5, 10, 13, 7, 21, 28, 41, 13, 0)
s = 78: (0, 13, 13, 4, 7, 13, 12, 19, 21, 65, 16, 0)
s = 79: (0, 22, 10, 2, 9, 27, 11, 27, 17, 32, 21, 0)
s = 80: (0, 23, 11, 3, 7, 28, 7, 29, 14, 58, 14, 0)
s = 81: (0, 33, 7, 3, 5, 28, 7, 37, 17, 36, 21, 0)
s = 82: (0, 26, 13, 4, 4, 14, 12, 27, 27, 43, 19, 0)
s = 83: (0, 12, 9, 3, 4, 24, 6, 19, 24, 50, 12, 0)
s = 84: (0, 28, 8, 2, 4, 15, 9, 25, 16, 36, 14, 0)
s = 85: (0, 23, 7, 4, 8, 18, 6, 24, 22, 60, 14, 0)
s = 86: (0, 19, 9, 4, 8, 29, 11, 31, 21, 73, 12, 0)
s = 87: (0, 28, 9, 5, 6, 25, 9, 43, 14, 77, 24, 0)
s = 88: (0, 27, 9, 5, 7, 21, 7, 37, 21, 49, 17, 0)
s = 89: (0, 22, 14, 5, 7, 13, 10, 26, 24, 71, 15, 0)
s = 90: (0, 26, 10, 3, 5, 22, 12, 24, 30, 41, 10, 0)
s = 91: (0, 34, 11, 3, 4, 20, 8, 19, 14, 34, 19, 0)
s = 92: (0, 17, 7, 2, 5, 24, 9, 21, 30, 43, 15, 0)
s = 93: (0, 29, 10, 3, 6, 26, 6, 37, 17, 48, 9, 0)
s = 94: (0, 17, 8, 3, 4, 24, 8, 20, 25, 68, 18, 0)
s = 95: (0, 21, 9, 4, 8, 17, 6, 38, 30, 74, 18, 0)
s = 96: (0, 22, 10, 3, 10, 17, 10, 29, 23, 45, 18, 0)
s = 97: (0, 14, 15, 3, 7, 15, 8, 30, 13, 80, 23, 0)
s = 98: (0, 15, 7, 5, 7, 16, 7, 34, 33, 49, 10, 0)
s = 99: (0, 25, 13, 4, 6, 22, 6, 40, 16, 79, 14, 0)
s = 100: (0, 14, 12, 3, 4, 24, 9, 21, 24, 45, 14, 0)
s = 101: (0, 20, 13, 4, 5, 21, 5, 42, 30, 34, 17, 0)
s = 102: (0, 12, 11, 3, 6, 17, 6, 34, 19, 34, 16, 0)
s = 103: (0, 20, 7, 5, 7, 28, 10, 16, 13, 66, 19, 0)
s = 104: (0, 14, 8, 2, 8, 19, 8, 34, 15, 44, 24, 0)
s = 105: (0, 16, 9, 3, 7, 17, 7, 19, 13, 37, 15, 0)
s = 106: (0, 27, 9, 4, 5, 22, 8, 26, 20, 33, 16, 0)
s = 107: (0, 18, 11, 3, 5, 12, 12, 35, 16, 83, 21, 0)
s = 108: (0, 28, 9, 3, 6, 27, 6, 16, 16, 50, 10, 0)
s = 109: (0, 26, 8, 3, 9, 21, 15, 37, 29, 64, 21, 0)
s = 110: (0, 13, 12, 6, 7, 16, 7, 26, 14, 39, 18, 0)
s = 111: (0, 16, 8, 3, 6, 17, 12, 32, 14, 43, 29, 0)
s = 112: (0, 20, 11, 2, 5, 24, 9, 19, 19, 30, 13, 0)
s = 113: (0, 14, 13, 3, 7, 19, 10, 23, 25, 62, 22, 0)
s = 114: (0, 33, 8, 4, 11, 19, 13, 30, 14, 42, 23, 0)
s = 115: (0, 17, 7, 4, 4, 32, 7, 18, 14, 55, 12, 0)
s = 116: (0, 21, 9, 3, 5, 17, 9, 25, 15, 48, 20, 0)
s = 117: (0, 17, 7, 4, 7, 15, 7, 32, 26, 48, 18, 0)
s = 118: (0, 22, 6, 3, 10, 28, 13, 34, 15, 57, 13, 0)
s = 119: (0, 15, 8, 4, 5, 16, 10, 18, 34, 54, 18, 0)
s = 120: (0, 22, 6, 4, 5, 23, 8, 30, 14, 81, 10, 0)
s = 121: (0, 28, 12, 4, 6, 21, 7, 26, 21, 47, 9, 0)
s = 122: (0, 18, 12, 2, 8, 20, 10, 29, 14, 62, 11, 0)
s = 123: (0, 19, 7, 3, 5, 17, 7, 23, 18, 65, 17, 0)
s = 124: (0, 13, 8, 3, 9, 27, 9, 20, 19, 34, 17, 0)
s = 125: (0, 17, 11, 4, 5, 16, 7, 34, 12, 53, 18, 0)
s = 126: (0, 18, 10, 4, 5, 21, 7, 28, 29, 58, 23, 0)
s = 127: (0, 15, 9, 4, 6, 28, 12, 34, 31, 54, 20, 0)
s = 128: (0, 24, 11, 3, 4, 16, 7, 32, 20, 57, 20, 0)
s = 129: (0, 36, 9, 3, 7, 19, 7, 25, 18, 51, 35, 0)
s = 130: (0, 25, 11, 2, 6, 17, 7, 27, 17, 52, 12, 0)
s = 131: (0, 14, 9, 2, 10, 29, 13, 32, 13, 62, 17, 0)
s = 132: (0, 14, 11, 3, 5, 24, 11, 43, 14, 52, 13, 0)
s = 133: (0, 18, 11, 4, 6, 24, 7, 26, 15, 37, 15, 0)
s = 134: (0, 18, 12, 4, 8, 15, 9, 18, 28, 54, 10, 0)
s = 135: (0, 20, 9, 3, 10, 17, 6, 21, 29, 52, 11, 0)
s = 136: (0, 38, 6, 4, 7, 16, 7, 34, 14, 66, 12, 0)
s = 137: (0, 19, 8, 4, 7, 32, 6, 23, 11, 48, 11, 0)
s = 138: (0, 21, 6, 3, 8, 14, 5, 18, 16, 48, 16, 0)
s = 139: (0, 15, 8, 5, 5, 18, 8, 19, 22, 48, 18, 0)
s = 140: (0, 31, 9, 2, 5, 21, 7, 22, 13, 48, 19, 0)
s = 141: (0, 27, 7, 4, 6, 32, 7, 20, 17, 40, 16, 0)
s = 142: (0, 20, 7, 3, 7, 17, 6, 55, 22, 42, 16, 0)
s = 143: (0, 27, 15, 3, 5, 23, 12, 39, 25, 57, 14, 0)
s = 144: (0, 19, 14, 3, 8, 23, 13, 26, 16, 43, 18, 0)
s = 145: (0, 14, 10, 5, 9, 15, 8, 24, 15, 46, 17, 0)
s = 146: (0, 13, 7, 5, 9, 14, 10, 25, 19, 54, 22, 0)
s = 147: (0, 24, 13, 3, 4, 20, 9, 48, 22, 41, 23, 0)
s = 148: (0, 15, 5, 4, 8, 24, 8, 41, 20, 75, 21, 0)
s = 149: (0, 18, 10, 4, 7, 24, 8, 46, 31, 31, 10, 0)
s = 150: (0, 14, 17, 3, 8, 17, 6, 29, 17, 38, 17, 0)
s = 151: (0, 19, 8, 2, 9, 29, 9, 34, 25, 75, 17, 0)
s = 152: (0, 25, 9, 3, 5, 25, 11, 24, 21, 47, 20, 0)
s = 153: (0, 29, 10, 4, 7, 12, 9, 25, 22, 60, 24, 0)
s = 154: (0, 12, 8, 3, 6, 13, 11, 34, 19, 45, 23, 0)
s = 155: (0, 12, 12, 4, 5, 17, 9, 25, 15, 41, 15, 0)
s = 156: (0, 29, 13, 3, 7, 20, 12, 22, 20, 46, 25, 0)
s = 157: (0, 17, 7, 4, 6, 28, 7, 18, 21, 43, 13, 0)
s = 158: (0, 29, 8, 2, 6, 16, 9, 35, 24, 37, 16, 0)
s = 159: (0, 25, 13, 4, 6, 18, 12, 24, 23, 45, 20, 0)
s = 160: (0, 14, 10, 3, 7, 20, 12, 47, 17, 54, 13, 0)
s = 161: (0, 16, 11, 4, 5, 33, 7, 24, 17, 46, 14, 0)
s = 162: (0, 22, 5, 3, 5, 33, 6, 23, 14, 46, 17, 0)
s = 163: (0, 28, 5, 3, 7, 14, 11, 42, 14, 45, 20, 0)
s = 164: (0, 17, 8, 3, 8, 11, 10, 21, 26, 29, 18, 0)
s = 165: (0, 16, 10, 3, 9, 15, 5, 26, 16, 46, 17, 0)
s = 166: (0, 19, 10, 4, 5, 31, 8, 36, 23, 37, 18, 0)
s = 167: (0, 16, 9, 4, 5, 24, 9, 34, 19, 76, 15, 0)
s = 168: (0, 19, 10, 4, 4, 12, 9, 24, 16, 84, 13, 0)
s = 169: (0, 18, 8, 3, 7, 18, 5, 24, 13, 90, 12, 0)
s = 170: (0, 21, 14, 3, 7, 18, 6, 40, 21, 49, 20, 0)
s = 171: (0, 30, 7, 3, 5, 15, 11, 34, 26, 31, 21, 0)
s = 172: (0, 20, 8, 3, 7, 21, 6, 27, 27, 56, 14, 0)
s = 173: (0, 24, 5, 4, 6, 14, 9, 24, 28, 59, 14, 0)
s = 174: (0, 19, 9, 3, 6, 26, 5, 31, 23, 55, 17, 0)
s = 175: (0, 12, 14, 3, 5, 13, 9, 29, 15, 33, 16, 0)
s = 176: (0, 14, 6, 3, 7, 25, 5, 32, 16, 57, 13, 0)
s = 177: (0, 18, 11, 3, 8, 24, 9, 33, 16, 48, 15, 0)
s = 178: (0, 18, 12, 4, 9, 12, 7, 25, 32, 54, 13, 0)
s = 179: (0, 22, 13, 3, 6, 13, 9, 24, 19, 35, 13, 0)
s = 180: (0, 26, 11, 3, 7, 18, 5, 37, 21, 47, 24, 0)
s = 181: (0, 26, 10, 3, 6, 23, 6, 47, 27, 89, 24, 0)
s = 182: (0, 25, 9, 3, 8, 18, 9, 43, 17, 31, 13, 0)
s = 183: (0, 13, 8, 3, 6, 25, 8, 23, 14, 38, 17, 0)
s = 184: (0, 16, 6, 3, 4, 17, 10, 24, 20, 62, 19, 0)
s = 185: (0, 19, 9, 5, 9, 20, 6, 24, 23, 81, 18, 0)
s = 186: (0, 29, 11, 4, 6, 21, 9, 29, 16, 51, 11, 0)
s = 187: (0, 18, 9, 2, 7, 26, 9, 24, 13, 72, 13, 0)
s = 188: (0, 25, 12, 3, 4, 21, 6, 34, 19, 79, 25, 0)
s = 189: (0, 30, 9, 3, 10, 20, 8, 29, 16, 47, 20, 0)
s = 190: (0, 25, 9, 3, 6, 25, 7, 34, 19, 49, 10, 0)
s = 191: (0, 30, 11, 3, 10, 26, 12, 25, 27, 43, 11, 0)
s = 192: (0, 18, 10, 4, 6, 17, 9, 36, 22, 71, 14, 0)
s = 193: (0, 12, 10, 5, 5, 19, 8, 28, 16, 40, 11, 0)
s = 194: (0, 24, 10, 2, 6, 14, 9, 25, 27, 83, 17, 0)
s = 195: (0, 25, 16, 3, 4, 18, 6, 18, 12, 57, 15, 0)
s = 196: (0, 19, 12, 3, 5, 23, 8, 47, 20, 80, 27, 0)
s = 197: (0, 26, 8, 3, 6, 20, 8, 25, 13, 46, 19, 0)
s = 198: (0, 30, 6, 3, 5, 13, 9, 23, 13, 64, 18, 0)
s = 199: (0, 15, 10, 4, 5, 26, 9, 18, 17, 44, 20, 0)
s = 200: (0, 18, 10, 4, 8, 15, 7, 33, 23, 48, 21, 0)
------------------------------------------------------------------------
RESOURCE k = 2
s = 1: (0, 0, 0, 11, 0, 21, 9, 0, 0, 35, 11, 0)
s = 2: (0, 0, 0, 10, 0, 24, 5, 0, 0, 50, 22, 0)
s = 3: (0, 0, 0, 8, 0, 24, 5, 0, 0, 20, 19, 0)
s = 4: (0, 0, 0, 12, 0, 33, 7, 0, 0, 21, 21, 0)
s = 5: (0, 0, 0, 8, 0, 21, 9, 0, 0, 44, 16, 0)
s = 6: (0, 0, 0, 9, 0, 20, 6, 0, 0, 19, 13, 0)
s = 7: (0, 0, 0, 12, 0, 31, 8, 0, 0, 34, 14, 0)
s = 8: (0, 0, 0, 6, 0, 17, 5, 0, 0, 35, 12, 0)
s = 9: (0, 0, 0, 12, 0, 23, 7, 0, 0, 26, 17, 0)
s = 10: (0, 0, 0, 9, 0, 39, 11, 0, 0, 20, 21, 0)
s = 11: (0, 0, 0, 7, 0, 19, 4, 0, 0, 56, 15, 0)
s = 12: (0, 0, 0, 15, 0, 26, 11, 0, 0, 34, 21, 0)
s = 13: (0, 0, 0, 10, 0, 31, 10, 0, 0, 39, 21, 0)
s = 14: (0, 0, 0, 16, 0, 40, 7, 0, 0, 37, 14, 0)
s = 15: (0, 0, 0, 13, 0, 39, 11, 0, 0, 42, 12, 0)
s = 16: (0, 0, 0, 8, 0, 32, 9, 0, 0, 25, 14, 0)
s = 17: (0, 0, 0, 9, 0, 24, 7, 0, 0, 29, 24, 0)
s = 18: (0, 0, 0, 10, 0, 24, 5, 0, 0, 29, 15, 0)
s = 19: (0, 0, 0, 9, 0, 39, 6, 0, 0, 58, 13, 0)
s = 20: (0, 0, 0, 11, 0, 31, 7, 0, 0, 32, 22, 0)
s = 21: (0, 0, 0, 10, 0, 36, 5, 0, 0, 43, 19, 0)
s = 22: (0, 0, 0, 11, 0, 22, 7, 0, 0, 40, 13, 0)
s = 23: (0, 0, 0, 8, 0, 21, 8, 0, 0, 35, 12, 0)
s = 24: (0, 0, 0, 10, 0, 29, 5, 0, 0, 42, 25, 0)
s = 25: (0, 0, 0, 12, 0, 47, 7, 0, 0, 37, 19, 0)
s = 26: (0, 0, 0, 6, 0, 19, 6, 0, 0, 31, 20, 0)
s = 27: (0, 0, 0, 6, 0, 24, 11, 0, 0, 48, 24, 0)
s = 28: (0, 0, 0, 10, 0, 19, 7, 0, 0, 22, 19, 0)
s = 29: (0, 0, 0, 9, 0, 40, 8, 0, 0, 43, 14, 0)
s = 30: (0, 0, 0, 7, 0, 25, 8, 0, 0, 35, 15, 0)
s = 31: (0, 0, 0, 7, 0, 23, 9, 0, 0, 23, 18, 0)
s = 32: (0, 0, 0, 8, 0, 21, 6, 0, 0, 33, 17, 0)
s = 33: (0, 0, 0, 7, 0, 29, 7, 0, 0, 46, 13, 0)
s = 34: (0, 0, 0, 8, 0, 27, 8, 0, 0, 42, 24, 0)
s = 35: (0, 0, 0, 8, 0, 22, 7, 0, 0, 31, 22, 0)
s = 36: (0, 0, 0, 9, 0, 38, 5, 0, 0, 27, 10, 0)
s = 37: (0, 0, 0, 15, 0, 30, 9, 0, 0, 34, 18, 0)
s = 38: (0, 0, 0, 7, 0, 29, 9, 0, 0, 39, 24, 0)
s = 39: (0, 0, 0, 12, 0, 44, 8, 0, 0, 30, 12, 0)
s = 40: (0, 0, 0, 9, 0, 17, 8, 0, 0, 26, 20, 0)
s = 41: (0, 0, 0, 8, 0, 27, 7, 0, 0, 23, 21, 0)
s = 42: (0, 0, 0, 8, 0, 27, 8, 0, 0, 21, 13, 0)
s = 43: (0, 0, 0, 7, 0, 45, 5, 0, 0, 29, 16, 0)
s = 44: (0, 0, 0, 7, 0, 32, 12, 0, 0, 22, 18, 0)
s = 45: (0, 0, 0, 7, 0, 26, 7, 0, 0, 22, 24, 0)
s = 46: (0, 0, 0, 10, 0, 24, 7, 0, 0, 39, 16, 0)
s = 47: (0, 0, 0, 9, 0, 24, 8, 0, 0, 38, 14, 0)
s = 48: (0, 0, 0, 6, 0, 22, 8, 0, 0, 46, 11, 0)
s = 49: (0, 0, 0, 13, 0, 38, 5, 0, 0, 25, 11, 0)
s = 50: (0, 0, 0, 11, 0, 22, 7, 0, 0, 25, 20, 0)
s = 51: (0, 0, 0, 6, 0, 21, 5, 0, 0, 32, 13, 0)
s = 52: (0, 0, 0, 13, 0, 20, 6, 0, 0, 24, 16, 0)
s = 53: (0, 0, 0, 9, 0, 15, 10, 0, 0, 23, 19, 0)
s = 54: (0, 0, 0, 13, 0, 19, 8, 0, 0, 36, 10, 0)
s = 55: (0, 0, 0, 10, 0, 27, 6, 0, 0, 31, 15, 0)
s = 56: (0, 0, 0, 6, 0, 21, 5, 0, 0, 29, 24, 0)
s = 57: (0, 0, 0, 10, 0, 30, 10, 0, 0, 49, 22, 0)
s = 58: (0, 0, 0, 10, 0, 36, 11, 0, 0, 19, 16, 0)
s = 59: (0, 0, 0, 8, 0, 27, 6, 0, 0, 39, 15, 0)
s = 60: (0, 0, 0, 7, 0, 31, 5, 0, 0, 26, 17, 0)
s = 61: (0, 0, 0, 10, 0, 26, 7, 0, 0, 42, 28, 0)
s = 62: (0, 0, 0, 5, 0, 29, 5, 0, 0, 31, 16, 0)
s = 63: (0, 0, 0, 8, 0, 23, 8, 0, 0, 24, 13, 0)
s = 64: (0, 0, 0, 11, 0, 25, 5, 0, 0, 35, 17, 0)
s = 65: (0, 0, 0, 9, 0, 34, 10, 0, 0, 39, 19, 0)
s = 66: (0, 0, 0, 6, 0, 32, 9, 0, 0, 35, 18, 0)
s = 67: (0, 0, 0, 13, 0, 22, 9, 0, 0, 51, 16, 0)
s = 68: (0, 0, 0, 9, 0, 38, 6, 0, 0, 42, 16, 0)
s = 69: (0, 0, 0, 5, 0, 30, 9, 0, 0, 65, 16, 0)
s = 70: (0, 0, 0, 11, 0, 43, 7, 0, 0, 31, 10, 0)
s = 71: (0, 0, 0, 10, 0, 24, 9, 0, 0, 27, 14, 0)
s = 72: (0, 0, 0, 11, 0, 38, 10, 0, 0, 49, 21, 0)
s = 73: (0, 0, 0, 9, 0, 48, 9, 0, 0, 37, 19, 0)
s = 74: (0, 0, 0, 11, 0, 24, 9, 0, 0, 37, 10, 0)
s = 75: (0, 0, 0, 8, 0, 25, 10, 0, 0, 50, 14, 0)
s = 76: (0, 0, 0, 7, 0, 18, 10, 0, 0, 38, 16, 0)
s = 77: (0, 0, 0, 14, 0, 19, 6, 0, 0, 27, 13, 0)
s = 78: (0, 0, 0, 11, 0, 18, 10, 0, 0, 44, 16, 0)
s = 79: (0, 0, 0, 6, 0, 38, 9, 0, 0, 22, 21, 0)
s = 80: (0, 0, 0, 7, 0, 39, 7, 0, 0, 39, 14, 0)
s = 81: (0, 0, 0, 9, 0, 39, 6, 0, 0, 24, 21, 0)
s = 82: (0, 0, 0, 11, 0, 19, 10, 0, 0, 29, 19, 0)
s = 83: (0, 0, 0, 7, 0, 33, 5, 0, 0, 33, 12, 0)
s = 84: (0, 0, 0, 6, 0, 21, 8, 0, 0, 24, 14, 0)
s = 85: (0, 0, 0, 11, 0, 25, 6, 0, 0, 40, 14, 0)
s = 86: (0, 0, 0, 10, 0, 40, 9, 0, 0, 49, 12, 0)
s = 87: (0, 0, 0, 14, 0, 34, 8, 0, 0, 52, 24, 0)
s = 88: (0, 0, 0, 14, 0, 29, 6, 0, 0, 33, 17, 0)
s = 89: (0, 0, 0, 15, 0, 18, 9, 0, 0, 48, 15, 0)
s = 90: (0, 0, 0, 9, 0, 31, 10, 0, 0, 28, 10, 0)
s = 91: (0, 0, 0, 9, 0, 27, 7, 0, 0, 23, 19, 0)
s = 92: (0, 0, 0, 6, 0, 34, 8, 0, 0, 29, 15, 0)
s = 93: (0, 0, 0, 9, 0, 37, 5, 0, 0, 32, 9, 0)
s = 94: (0, 0, 0, 7, 0, 34, 7, 0, 0, 46, 18, 0)
s = 95: (0, 0, 0, 11, 0, 23, 5, 0, 0, 49, 18, 0)
s = 96: (0, 0, 0, 7, 0, 24, 8, 0, 0, 30, 18, 0)
s = 97: (0, 0, 0, 7, 0, 20, 7, 0, 0, 54, 23, 0)
s = 98: (0, 0, 0, 14, 0, 22, 6, 0, 0, 33, 10, 0)
s = 99: (0, 0, 0, 10, 0, 30, 6, 0, 0, 53, 14, 0)
s = 100: (0, 0, 0, 9, 0, 33, 8, 0, 0, 30, 14, 0)
s = 101: (0, 0, 0, 12, 0, 29, 5, 0, 0, 23, 17, 0)
s = 102: (0, 0, 0, 9, 0, 24, 6, 0, 0, 23, 16, 0)
s = 103: (0, 0, 0, 13, 0, 38, 9, 0, 0, 44, 19, 0)
s = 104: (0, 0, 0, 5, 0, 27, 7, 0, 0, 29, 24, 0)
s = 105: (0, 0, 0, 7, 0, 24, 6, 0, 0, 25, 15, 0)
s = 106: (0, 0, 0, 12, 0, 31, 7, 0, 0, 22, 16, 0)
s = 107: (0, 0, 0, 9, 0, 16, 10, 0, 0, 56, 21, 0)
s = 108: (0, 0, 0, 8, 0, 37, 6, 0, 0, 33, 10, 0)
s = 109: (0, 0, 0, 9, 0, 29, 13, 0, 0, 43, 21, 0)
s = 110: (0, 0, 0, 16, 0, 22, 7, 0, 0, 26, 18, 0)
s = 111: (0, 0, 0, 7, 0, 23, 11, 0, 0, 29, 29, 0)
s = 112: (0, 0, 0, 6, 0, 33, 8, 0, 0, 20, 13, 0)
s = 113: (0, 0, 0, 8, 0, 26, 9, 0, 0, 42, 22, 0)
s = 114: (0, 0, 0, 10, 0, 26, 12, 0, 0, 28, 23, 0)
s = 115: (0, 0, 0, 11, 0, 44, 6, 0, 0, 37, 12, 0)
s = 116: (0, 0, 0, 7, 0, 23, 8, 0, 0, 32, 20, 0)
s = 117: (0, 0, 0, 10, 0, 21, 6, 0, 0, 32, 18, 0)
s = 118: (0, 0, 0, 7, 0, 39, 11, 0, 0, 38, 13, 0)
s = 119: (0, 0, 0, 10, 0, 23, 9, 0, 0, 36, 18, 0)
s = 120: (0, 0, 0, 10, 0, 32, 7, 0, 0, 54, 10, 0)
s = 121: (0, 0, 0, 12, 0, 30, 6, 0, 0, 31, 9, 0)
s = 122: (0, 0, 0, 6, 0, 27, 9, 0, 0, 41, 11, 0)
s = 123: (0, 0, 0, 9, 0, 23, 6, 0, 0, 44, 17, 0)
s = 124: (0, 0, 0, 7, 0, 37, 8, 0, 0, 23, 17, 0)
s = 125: (0, 0, 0, 11, 0, 22, 6, 0, 0, 36, 18, 0)
s = 126: (0, 0, 0, 10, 0, 30, 6, 0, 0, 39, 23, 0)
s = 127: (0, 0, 0, 11, 0, 39, 11, 0, 0, 36, 20, 0)
s = 128: (0, 0, 0, 9, 0, 23, 6, 0, 0, 38, 20, 0)
s = 129: (0, 0, 0, 8, 0, 26, 6, 0, 0, 34, 35, 0)
s = 130: (0, 0, 0, 6, 0, 24, 6, 0, 0, 35, 12, 0)
s = 131: (0, 0, 0, 6, 0, 41, 11, 0, 0, 41, 17, 0)
s = 132: (0, 0, 0, 8, 0, 33, 10, 0, 0, 35, 13, 0)
s = 133: (0, 0, 0, 11, 0, 34, 6, 0, 0, 25, 15, 0)
s = 134: (0, 0, 0, 10, 0, 21, 8, 0, 0, 36, 10, 0)
s = 135: (0, 0, 0, 8, 0, 24, 5, 0, 0, 35, 11, 0)
s = 136: (0, 0, 0, 10, 0, 23, 6, 0, 0, 44, 12, 0)
s = 137: (0, 0, 0, 11, 0, 45, 5, 0, 0, 32, 11, 0)
s = 138: (0, 0, 0, 7, 0, 20, 5, 0, 0, 32, 16, 0)
s = 139: (0, 0, 0, 13, 0, 25, 7, 0, 0, 32, 18, 0)
s = 140: (0, 0, 0, 5, 0, 29, 6, 0, 0, 32, 19, 0)
s = 141: (0, 0, 0, 10, 0, 44, 6, 0, 0, 27, 16, 0)
s = 142: (0, 0, 0, 8, 0, 24, 6, 0, 0, 28, 16, 0)
s = 143: (0, 0, 0, 9, 0, 32, 11, 0, 0, 38, 14, 0)
s = 144: (0, 0, 0, 9, 0, 32, 11, 0, 0, 29, 18, 0)
s = 145: (0, 0, 0, 15, 0, 20, 7, 0, 0, 31, 17, 0)
s = 146: (0, 0, 0, 13, 0, 19, 9, 0, 0, 36, 22, 0)
s = 147: (0, 0, 0, 8, 0, 28, 8, 0, 0, 27, 23, 0)
s = 148: (0, 0, 0, 12, 0, 33, 7, 0, 0, 50, 21, 0)
s = 149: (0, 0, 0, 11, 0, 33, 7, 0, 0, 21, 10, 0)
s = 150: (0, 0, 0, 7, 0, 23, 5, 0, 0, 25, 17, 0)
s = 151: (0, 0, 0, 6, 0, 41, 8, 0, 0, 50, 17, 0)
s = 152: (0, 0, 0, 7, 0, 35, 10, 0, 0, 32, 20, 0)
s = 153: (0, 0, 0, 10, 0, 17, 8, 0, 0, 40, 24, 0)
s = 154: (0, 0, 0, 8, 0, 18, 9, 0, 0, 30, 23, 0)
s = 155: (0, 0, 0, 10, 0, 23, 8, 0, 0, 27, 15, 0)
s = 156: (0, 0, 0, 8, 0, 28, 10, 0, 0, 31, 25, 0)
s = 157: (0, 0, 0, 10, 0, 38, 6, 0, 0, 29, 13, 0)
s = 158: (0, 0, 0, 6, 0, 23, 8, 0, 0, 25, 16, 0)
s = 159: (0, 0, 0, 10, 0, 25, 11, 0, 0, 30, 20, 0)
s = 160: (0, 0, 0, 8, 0, 27, 11, 0, 0, 36, 13, 0)
s = 161: (0, 0, 0, 10, 0, 45, 6, 0, 0, 31, 14, 0)
s = 162: (0, 0, 0, 7, 0, 46, 6, 0, 0, 31, 17, 0)
s = 163: (0, 0, 0, 8, 0, 19, 10, 0, 0, 30, 20, 0)
s = 164: (0, 0, 0, 8, 0, 15, 9, 0, 0, 19, 18, 0)
s = 165: (0, 0, 0, 7, 0, 20, 5, 0, 0, 31, 17, 0)
s = 166: (0, 0, 0, 10, 0, 43, 7, 0, 0, 25, 18, 0)
s = 167: (0, 0, 0, 12, 0, 33, 8, 0, 0, 51, 15, 0)
s = 168: (0, 0, 0, 10, 0, 17, 8, 0, 0, 56, 13, 0)
s = 169: (0, 0, 0, 9, 0, 25, 4, 0, 0, 60, 12, 0)
s = 170: (0, 0, 0, 7, 0, 25, 5, 0, 0, 33, 20, 0)
s = 171: (0, 0, 0, 7, 0, 20, 9, 0, 0, 21, 21, 0)
s = 172: (0, 0, 0, 7, 0, 30, 5, 0, 0, 37, 14, 0)
s = 173: (0, 0, 0, 12, 0, 20, 8, 0, 0, 40, 14, 0)
s = 174: (0, 0, 0, 8, 0, 37, 5, 0, 0, 37, 17, 0)
s = 175: (0, 0, 0, 7, 0, 18, 8, 0, 0, 22, 16, 0)
s = 176: (0, 0, 0, 9, 0, 35, 5, 0, 0, 38, 13, 0)
s = 177: (0, 0, 0, 9, 0, 33, 8, 0, 0, 32, 15, 0)
s = 178: (0, 0, 0, 11, 0, 16, 6, 0, 0, 36, 13, 0)
s = 179: (0, 0, 0, 7, 0, 19, 8, 0, 0, 24, 13, 0)
s = 180: (0, 0, 0, 7, 0, 25, 4, 0, 0, 31, 24, 0)
s = 181: (0, 0, 0, 8, 0, 32, 6, 0, 0, 60, 24, 0)
s = 182: (0, 0, 0, 7, 0, 25, 8, 0, 0, 21, 13, 0)
s = 183: (0, 0, 0, 7, 0, 34, 7, 0, 0, 26, 17, 0)
s = 184: (0, 0, 0, 9, 0, 24, 9, 0, 0, 41, 19, 0)
s = 185: (0, 0, 0, 15, 0, 27, 5, 0, 0, 54, 18, 0)
s = 186: (0, 0, 0, 12, 0, 30, 8, 0, 0, 34, 11, 0)
s = 187: (0, 0, 0, 6, 0, 36, 8, 0, 0, 48, 13, 0)
s = 188: (0, 0, 0, 7, 0, 29, 5, 0, 0, 53, 25, 0)
s = 189: (0, 0, 0, 9, 0, 28, 7, 0, 0, 31, 20, 0)
s = 190: (0, 0, 0, 8, 0, 35, 6, 0, 0, 33, 10, 0)
s = 191: (0, 0, 0, 8, 0, 36, 11, 0, 0, 29, 11, 0)
s = 192: (0, 0, 0, 10, 0, 24, 8, 0, 0, 47, 14, 0)
s = 193: (0, 0, 0, 14, 0, 27, 7, 0, 0, 27, 11, 0)
s = 194: (0, 0, 0, 6, 0, 20, 8, 0, 0, 56, 17, 0)
s = 195: (0, 0, 0, 9, 0, 25, 5, 0, 0, 38, 15, 0)
s = 196: (0, 0, 0, 9, 0, 32, 7, 0, 0, 53, 27, 0)
s = 197: (0, 0, 0, 9, 0, 28, 7, 0, 0, 31, 19, 0)
s = 198: (0, 0, 0, 9, 0, 17, 8, 0, 0, 43, 18, 0)
s = 199: (0, 0, 0, 11, 0, 36, 8, 0, 0, 29, 20, 0)
s = 200: (0, 0, 0, 12, 0, 20, 6, 0, 0, 32, 21, 0)
------------------------------------------------------------------------
RESOURCE k = 3
s = 1: (0, 16, 6, 0, 9, 0, 0, 31, 31, 0, 0, 0)
s = 2: (0, 17, 7, 0, 5, 0, 0, 16, 30, 0, 0, 0)
s = 3: (0, 11, 6, 0, 9, 0, 0, 17, 27, 0, 0, 0)
s = 4: (0, 12, 5, 0, 8, 0, 0, 14, 21, 0, 0, 0)
s = 5: (0, 18, 6, 0, 7, 0, 0, 24, 40, 0, 0, 0)
s = 6: (0, 12, 6, 0, 12, 0, 0, 13, 42, 0, 0, 0)
s = 7: (0, 14, 5, 0, 8, 0, 0, 9, 19, 0, 0, 0)
s = 8: (0, 7, 3, 0, 11, 0, 0, 14, 30, 0, 0, 0)
s = 9: (0, 10, 3, 0, 6, 0, 0, 24, 19, 0, 0, 0)
s = 10: (0, 23, 5, 0, 7, 0, 0, 17, 18, 0, 0, 0)
s = 11: (0, 15, 4, 0, 4, 0, 0, 14, 35, 0, 0, 0)
s = 12: (0, 12, 6, 0, 9, 0, 0, 17, 29, 0, 0, 0)
s = 13: (0, 12, 4, 0, 7, 0, 0, 20, 34, 0, 0, 0)
s = 14: (0, 8, 6, 0, 6, 0, 0, 17, 53, 0, 0, 0)
s = 15: (0, 8, 4, 0, 7, 0, 0, 12, 27, 0, 0, 0)
s = 16: (0, 15, 4, 0, 9, 0, 0, 16, 23, 0, 0, 0)
s = 17: (0, 16, 4, 0, 10, 0, 0, 16, 44, 0, 0, 0)
s = 18: (0, 16, 3, 0, 7, 0, 0, 16, 28, 0, 0, 0)
s = 19: (0, 10, 5, 0, 8, 0, 0, 16, 29, 0, 0, 0)
s = 20: (0, 7, 3, 0, 5, 0, 0, 14, 38, 0, 0, 0)
s = 21: (0, 15, 5, 0, 8, 0, 0, 19, 21, 0, 0, 0)
s = 22: (0, 14, 5, 0, 10, 0, 0, 14, 46, 0, 0, 0)
s = 23: (0, 8, 6, 0, 5, 0, 0, 12, 37, 0, 0, 0)
s = 24: (0, 18, 7, 0, 8, 0, 0, 13, 48, 0, 0, 0)
s = 25: (0, 14, 4, 0, 5, 0, 0, 10, 21, 0, 0, 0)
s = 26: (0, 9, 3, 0, 9, 0, 0, 15, 21, 0, 0, 0)
s = 27: (0, 14, 5, 0, 6, 0, 0, 17, 18, 0, 0, 0)
s = 28: (0, 8, 5, 0, 9, 0, 0, 16, 27, 0, 0, 0)
s = 29: (0, 17, 4, 0, 8, 0, 0, 27, 41, 0, 0, 0)
s = 30: (0, 11, 7, 0, 6, 0, 0, 21, 20, 0, 0, 0)
s = 31: (0, 18, 6, 0, 10, 0, 0, 23, 39, 0, 0, 0)
s = 32: (0, 21, 5, 0, 7, 0, 0, 10, 26, 0, 0, 0)
s = 33: (0, 9, 5, 0, 12, 0, 0, 17, 28, 0, 0, 0)
s = 34: (0, 10, 5, 0, 7, 0, 0, 24, 25, 0, 0, 0)
s = 35: (0, 15, 4, 0, 7, 0, 0, 9, 19, 0, 0, 0)
s = 36: (0, 12, 5, 0, 8, 0, 0, 16, 38, 0, 0, 0)
s = 37: (0, 12, 5, 0, 5, 0, 0, 19, 34, 0, 0, 0)
s = 38: (0, 11, 5, 0, 12, 0, 0, 19, 36, 0, 0, 0)
s = 39: (0, 12, 5, 0, 7, 0, 0, 11, 26, 0, 0, 0)
s = 40: (0, 9, 6, 0, 11, 0, 0, 21, 24, 0, 0, 0)
s = 41: (0, 7, 4, 0, 8, 0, 0, 18, 26, 0, 0, 0)
s = 42: (0, 11, 7, 0, 7, 0, 0, 13, 22, 0, 0, 0)
s = 43: (0, 13, 5, 0, 7, 0, 0, 20, 30, 0, 0, 0)
s = 44: (0, 10, 3, 0, 9, 0, 0, 24, 44, 0, 0, 0)
s = 45: (0, 14, 5, 0, 10, 0, 0, 23, 37, 0, 0, 0)
s = 46: (0, 10, 3, 0, 6, 0, 0, 13, 21, 0, 0, 0)
s = 47: (0, 13, 5, 0, 6, 0, 0, 21, 42, 0, 0, 0)
s = 48: (0, 10, 4, 0, 8, 0, 0, 14, 19, 0, 0, 0)
s = 49: (0, 10, 3, 0, 7, 0, 0, 15, 27, 0, 0, 0)
s = 50: (0, 13, 3, 0, 5, 0, 0, 19, 45, 0, 0, 0)
s = 51: (0, 11, 6, 0, 6, 0, 0, 19, 20, 0, 0, 0)
s = 52: (0, 12, 3, 0, 5, 0, 0, 13, 24, 0, 0, 0)
s = 53: (0, 17, 5, 0, 5, 0, 0, 15, 24, 0, 0, 0)
s = 54: (0, 10, 4, 0, 10, 0, 0, 21, 38, 0, 0, 0)
s = 55: (0, 10, 5, 0, 5, 0, 0, 14, 41, 0, 0, 0)
s = 56: (0, 12, 6, 0, 9, 0, 0, 13, 41, 0, 0, 0)
s = 57: (0, 9, 4, 0, 7, 0, 0, 14, 45, 0, 0, 0)
s = 58: (0, 17, 4, 0, 8, 0, 0, 11, 45, 0, 0, 0)
s = 59: (0, 14, 3, 0, 11, 0, 0, 17, 41, 0, 0, 0)
s = 60: (0, 12, 6, 0, 5, 0, 0, 20, 51, 0, 0, 0)
s = 61: (0, 9, 5, 0, 4, 0, 0, 18, 37, 0, 0, 0)
s = 62: (0, 10, 5, 0, 10, 0, 0, 14, 25, 0, 0, 0)
s = 63: (0, 16, 4, 0, 11, 0, 0, 18, 20, 0, 0, 0)
s = 64: (0, 9, 5, 0, 6, 0, 0, 15, 24, 0, 0, 0)
s = 65: (0, 8, 4, 0, 8, 0, 0, 17, 25, 0, 0, 0)
s = 66: (0, 10, 5, 0, 7, 0, 0, 15, 34, 0, 0, 0)
s = 67: (0, 13, 4, 0, 11, 0, 0, 10, 26, 0, 0, 0)
s = 68: (0, 9, 5, 0, 9, 0, 0, 15, 25, 0, 0, 0)
s = 69: (0, 19, 5, 0, 9, 0, 0, 19, 27, 0, 0, 0)
s = 70: (0, 12, 3, 0, 9, 0, 0, 14, 38, 0, 0, 0)
s = 71: (0, 17, 3, 0, 7, 0, 0, 11, 31, 0, 0, 0)
s = 72: (0, 13, 5, 0, 8, 0, 0, 11, 30, 0, 0, 0)
s = 73: (0, 7, 5, 0, 7, 0, 0, 20, 21, 0, 0, 0)
s = 74: (0, 14, 3, 0, 6, 0, 0, 14, 31, 0, 0, 0)
s = 75: (0, 10, 5, 0, 7, 0, 0, 17, 19, 0, 0, 0)
s = 76: (0, 8, 4, 0, 6, 0, 0, 14, 37, 0, 0, 0)
s = 77: (0, 9, 7, 0, 11, 0, 0, 12, 44, 0, 0, 0)
s = 78: (0, 8, 6, 0, 8, 0, 0, 11, 33, 0, 0, 0)
s = 79: (0, 14, 5, 0, 10, 0, 0, 16, 27, 0, 0, 0)
s = 80: (0, 14, 5, 0, 8, 0, 0, 17, 22, 0, 0, 0)
s = 81: (0, 20, 4, 0, 6, 0, 0, 21, 27, 0, 0, 0)
s = 82: (0, 16, 6, 0, 4, 0, 0, 16, 42, 0, 0, 0)
s = 83: (0, 7, 4, 0, 5, 0, 0, 11, 38, 0, 0, 0)
s = 84: (0, 17, 4, 0, 5, 0, 0, 14, 25, 0, 0, 0)
s = 85: (0, 14, 3, 0, 10, 0, 0, 14, 34, 0, 0, 0)
s = 86: (0, 12, 4, 0, 9, 0, 0, 18, 33, 0, 0, 0)
s = 87: (0, 17, 4, 0, 7, 0, 0, 25, 22, 0, 0, 0)
s = 88: (0, 17, 4, 0, 8, 0, 0, 22, 33, 0, 0, 0)
s = 89: (0, 14, 6, 0, 8, 0, 0, 15, 39, 0, 0, 0)
s = 90: (0, 16, 5, 0, 5, 0, 0, 14, 47, 0, 0, 0)
s = 91: (0, 21, 5, 0, 5, 0, 0, 11, 22, 0, 0, 0)
s = 92: (0, 11, 3, 0, 5, 0, 0, 12, 47, 0, 0, 0)
s = 93: (0, 18, 5, 0, 7, 0, 0, 21, 26, 0, 0, 0)
s = 94: (0, 11, 4, 0, 4, 0, 0, 11, 39, 0, 0, 0)
s = 95: (0, 13, 4, 0, 9, 0, 0, 22, 47, 0, 0, 0)
s = 96: (0, 14, 5, 0, 11, 0, 0, 17, 36, 0, 0, 0)
s = 97: (0, 8, 7, 0, 8, 0, 0, 17, 21, 0, 0, 0)
s = 98: (0, 9, 4, 0, 8, 0, 0, 20, 53, 0, 0, 0)
s = 99: (0, 15, 6, 0, 7, 0, 0, 23, 25, 0, 0, 0)
s = 100: (0, 8, 6, 0, 5, 0, 0, 12, 39, 0, 0, 0)
s = 101: (0, 12, 6, 0, 6, 0, 0, 24, 47, 0, 0, 0)
s = 102: (0, 7, 5, 0, 7, 0, 0, 20, 29, 0, 0, 0)
s = 103: (0, 12, 3, 0, 8, 0, 0, 10, 20, 0, 0, 0)
s = 104: (0, 9, 4, 0, 9, 0, 0, 19, 24, 0, 0, 0)
s = 105: (0, 10, 4, 0, 8, 0, 0, 11, 20, 0, 0, 0)
s = 106: (0, 17, 4, 0, 5, 0, 0, 15, 32, 0, 0, 0)
s = 107: (0, 11, 5, 0, 6, 0, 0, 20, 25, 0, 0, 0)
s = 108: (0, 17, 4, 0, 7, 0, 0, 9, 25, 0, 0, 0)
s = 109: (0, 16, 4, 0, 11, 0, 0, 21, 46, 0, 0, 0)
s = 110: (0, 8, 6, 0, 8, 0, 0, 15, 22, 0, 0, 0)
s = 111: (0, 10, 4, 0, 7, 0, 0, 19, 22, 0, 0, 0)
s = 112: (0, 12, 5, 0, 6, 0, 0, 11, 31, 0, 0, 0)
s = 113: (0, 9, 6, 0, 9, 0, 0, 13, 40, 0, 0, 0)
s = 114: (0, 20, 4, 0, 13, 0, 0, 18, 22, 0, 0, 0)
s = 115: (0, 11, 3, 0, 5, 0, 0, 10, 21, 0, 0, 0)
s = 116: (0, 13, 4, 0, 5, 0, 0, 15, 24, 0, 0, 0)
s = 117: (0, 11, 3, 0, 8, 0, 0, 19, 42, 0, 0, 0)
s = 118: (0, 13, 3, 0, 12, 0, 0, 20, 24, 0, 0, 0)
s = 119: (0, 9, 4, 0, 5, 0, 0, 10, 54, 0, 0, 0)
s = 120: (0, 14, 3, 0, 6, 0, 0, 17, 21, 0, 0, 0)
s = 121: (0, 17, 5, 0, 7, 0, 0, 15, 33, 0, 0, 0)
s = 122: (0, 11, 5, 0, 9, 0, 0, 17, 21, 0, 0, 0)
s = 123: (0, 12, 3, 0, 5, 0, 0, 13, 28, 0, 0, 0)
s = 124: (0, 8, 4, 0, 10, 0, 0, 12, 30, 0, 0, 0)
s = 125: (0, 11, 5, 0, 6, 0, 0, 20, 19, 0, 0, 0)
s = 126: (0, 11, 5, 0, 6, 0, 0, 16, 46, 0, 0, 0)
s = 127: (0, 9, 4, 0, 6, 0, 0, 20, 49, 0, 0, 0)
s = 128: (0, 15, 5, 0, 5, 0, 0, 19, 31, 0, 0, 0)
s = 129: (0, 22, 4, 0, 8, 0, 0, 15, 29, 0, 0, 0)
s = 130: (0, 15, 5, 0, 7, 0, 0, 16, 27, 0, 0, 0)
s = 131: (0, 9, 4, 0, 11, 0, 0, 18, 20, 0, 0, 0)
s = 132: (0, 9, 5, 0, 6, 0, 0, 25, 22, 0, 0, 0)
s = 133: (0, 11, 5, 0, 7, 0, 0, 15, 23, 0, 0, 0)
s = 134: (0, 11, 6, 0, 9, 0, 0, 11, 45, 0, 0, 0)
s = 135: (0, 12, 4, 0, 11, 0, 0, 12, 46, 0, 0, 0)
s = 136: (0, 23, 3, 0, 8, 0, 0, 19, 21, 0, 0, 0)
s = 137: (0, 11, 4, 0, 8, 0, 0, 13, 18, 0, 0, 0)
s = 138: (0, 13, 3, 0, 10, 0, 0, 11, 25, 0, 0, 0)
s = 139: (0, 9, 4, 0, 6, 0, 0, 11, 35, 0, 0, 0)
s = 140: (0, 19, 4, 0, 6, 0, 0, 13, 21, 0, 0, 0)
s = 141: (0, 17, 4, 0, 7, 0, 0, 12, 27, 0, 0, 0)
s = 142: (0, 12, 4, 0, 8, 0, 0, 31, 34, 0, 0, 0)
s = 143: (0, 16, 7, 0, 5, 0, 0, 22, 39, 0, 0, 0)
s = 144: (0, 11, 6, 0, 10, 0, 0, 15, 25, 0, 0, 0)
s = 145: (0, 8, 5, 0, 10, 0, 0, 14, 23, 0, 0, 0)
s = 146: (0, 8, 4, 0, 10, 0, 0, 14, 30, 0, 0, 0)
s = 147: (0, 14, 6, 0, 5, 0, 0, 28, 35, 0, 0, 0)
s = 148: (0, 9, 3, 0, 9, 0, 0, 23, 32, 0, 0, 0)
s = 149: (0, 11, 5, 0, 8, 0, 0, 26, 50, 0, 0, 0)
s = 150: (0, 8, 8, 0, 9, 0, 0, 17, 26, 0, 0, 0)
s = 151: (0, 12, 4, 0, 11, 0, 0, 20, 40, 0, 0, 0)
s = 152: (0, 15, 4, 0, 6, 0, 0, 14, 34, 0, 0, 0)
s = 153: (0, 17, 5, 0, 8, 0, 0, 14, 35, 0, 0, 0)
s = 154: (0, 7, 4, 0, 7, 0, 0, 19, 29, 0, 0, 0)
s = 155: (0, 8, 5, 0, 6, 0, 0, 15, 23, 0, 0, 0)
s = 156: (0, 18, 6, 0, 8, 0, 0, 13, 31, 0, 0, 0)
s = 157: (0, 10, 3, 0, 7, 0, 0, 11, 33, 0, 0, 0)
s = 158: (0, 17, 4, 0, 7, 0, 0, 20, 38, 0, 0, 0)
s = 159: (0, 15, 6, 0, 7, 0, 0, 14, 36, 0, 0, 0)
s = 160: (0, 9, 5, 0, 8, 0, 0, 27, 27, 0, 0, 0)
s = 161: (0, 10, 5, 0, 6, 0, 0, 14, 27, 0, 0, 0)
s = 162: (0, 14, 3, 0, 6, 0, 0, 13, 22, 0, 0, 0)
s = 163: (0, 17, 3, 0, 8, 0, 0, 24, 21, 0, 0, 0)
s = 164: (0, 10, 4, 0, 9, 0, 0, 12, 42, 0, 0, 0)
s = 165: (0, 10, 5, 0, 11, 0, 0, 15, 25, 0, 0, 0)
s = 166: (0, 12, 5, 0, 5, 0, 0, 21, 36, 0, 0, 0)
s = 167: (0, 10, 4, 0, 6, 0, 0, 19, 30, 0, 0, 0)
s = 168: (0, 12, 5, 0, 4, 0, 0, 14, 25, 0, 0, 0)
s = 169: (0, 11, 4, 0, 8, 0, 0, 14, 20, 0, 0, 0)
s = 170: (0, 13, 6, 0, 8, 0, 0, 23, 33, 0, 0, 0)
s = 171: (0, 18, 3, 0, 6, 0, 0, 20, 42, 0, 0, 0)
s = 172: (0, 12, 4, 0, 8, 0, 0, 15, 43, 0, 0, 0)
s = 173: (0, 14, 3, 0, 7, 0, 0, 14, 44, 0, 0, 0)
s = 174: (0, 12, 4, 0, 7, 0, 0, 18, 37, 0, 0, 0)
s = 175: (0, 7, 7, 0, 6, 0, 0, 17, 24, 0, 0, 0)
s = 176: (0, 9, 3, 0, 8, 0, 0, 18, 25, 0, 0, 0)
s = 177: (0, 11, 5, 0, 9, 0, 0, 19, 25, 0, 0, 0)
s = 178: (0, 11, 6, 0, 10, 0, 0, 15, 51, 0, 0, 0)
s = 179: (0, 14, 6, 0, 7, 0, 0, 14, 30, 0, 0, 0)
s = 180: (0, 16, 5, 0, 9, 0, 0, 21, 33, 0, 0, 0)
s = 181: (0, 16, 5, 0, 7, 0, 0, 27, 43, 0, 0, 0)
s = 182: (0, 15, 4, 0, 9, 0, 0, 25, 28, 0, 0, 0)
s = 183: (0, 8, 4, 0, 7, 0, 0, 13, 23, 0, 0, 0)
s = 184: (0, 10, 3, 0, 4, 0, 0, 14, 32, 0, 0, 0)
s = 185: (0, 11, 4, 0, 10, 0, 0, 14, 37, 0, 0, 0)
s = 186: (0, 18, 5, 0, 7, 0, 0, 17, 25, 0, 0, 0)
s = 187: (0, 11, 4, 0, 8, 0, 0, 14, 21, 0, 0, 0)
s = 188: (0, 15, 6, 0, 5, 0, 0, 20, 29, 0, 0, 0)
s = 189: (0, 18, 4, 0, 11, 0, 0, 17, 25, 0, 0, 0)
s = 190: (0, 15, 4, 0, 6, 0, 0, 20, 31, 0, 0, 0)
s = 191: (0, 18, 5, 0, 11, 0, 0, 15, 44, 0, 0, 0)
s = 192: (0, 11, 5, 0, 7, 0, 0, 21, 35, 0, 0, 0)
s = 193: (0, 8, 5, 0, 6, 0, 0, 16, 25, 0, 0, 0)
s = 194: (0, 15, 5, 0, 7, 0, 0, 14, 44, 0, 0, 0)
s = 195: (0, 15, 8, 0, 4, 0, 0, 11, 18, 0, 0, 0)
s = 196: (0, 12, 6, 0, 6, 0, 0, 27, 32, 0, 0, 0)
s = 197: (0, 16, 4, 0, 7, 0, 0, 15, 20, 0, 0, 0)
s = 198: (0, 18, 3, 0, 6, 0, 0, 13, 21, 0, 0, 0)
s = 199: (0, 9, 5, 0, 6, 0, 0, 11, 27, 0, 0, 0)
s = 200: (0, 11, 5, 0, 10, 0, 0, 19, 37, 0, 0, 0)
************************************************************************
ES/LS-VALUES:
jobnr.   ES(i)    LS(i)
------------------------------------------------------------------------
  0        0        0
  1        0       64
  2        0       61
  3        0       58
  4        3       68
  5        2       63
  6        2       60
  7        3       62
  8        8       74
  9       10       70
 10       10       76
 11       20       81
************************************************************************
BIG-M-VALUES:
M1 = 52, M2 = 192
************************************************************************
